db/inputs/2684216855146911435529492309072479613367.smt2
(set-logic QF_FP)
(declare-const x0 (_ FloatingPoint 8 24))
(declare-const x1 (_ FloatingPoint 8 24))
(declare-const x2 (_ FloatingPoint 8 24))
(declare-const x3 (_ FloatingPoint 8 24))
(declare-const x4 (_ FloatingPoint 8 24))
(declare-const x5 (_ FloatingPoint 8 24))
(declare-const x6 (_ FloatingPoint 8 24))
(declare-const x7 (_ FloatingPoint 8 24))
(declare-const x8 (_ FloatingPoint 8 24))
(declare-const x9 (_ FloatingPoint 8 24))
(declare-const x10 (_ FloatingPoint 8 24))
(declare-const x11 (_ FloatingPoint 8 24))
(declare-const x12 (_ FloatingPoint 8 24))
(declare-const x13 (_ FloatingPoint 8 24))
(declare-const x14 (_ FloatingPoint 8 24))
(declare-const x15 (_ FloatingPoint 8 24))
(declare-const x16 (_ FloatingPoint 8 24))
(declare-const x17 (_ FloatingPoint 8 24))
(declare-const x18 (_ FloatingPoint 8 24))
(declare-const x19 (_ FloatingPoint 8 24))
(declare-const x20 (_ FloatingPoint 8 24))
(declare-const x21 (_ FloatingPoint 8 24))
(declare-const x22 (_ FloatingPoint 8 24))
(declare-const x23 (_ FloatingPoint 8 24))
(declare-const x24 (_ FloatingPoint 8 24))
(declare-const x25 (_ FloatingPoint 8 24))
(assert (fp.leq (fp.div RNE (fp.div RNE (fp.mul RNE (fp.sub RNE x23 x4) (fp.sub RNE x21 x0)) (fp.sub RNE (fp.add RNE x21 x21) (fp.mul RNE x3 x20))) (fp.sub RNE (fp.sub RNE (fp.neg x21) (fp.sub RNE x1 x11)) (fp.add RNE (fp.add RNE x12 x17) (fp.div RNE x18 x6)))) (fp.div RNE (fp.div RNE (fp.mul RNE (fp.div RNE x8 x13) (fp.mul RNE x21 x13)) (fp.div RNE (fp.neg x16) (fp.div RNE x14 x12))) (fp.neg (fp.mul RNE (fp.neg x4) (fp.mul RNE x3 x6))))))
(assert (fp.lt (fp.add RNE (fp.mul RNE (fp.sub RNE (fp.add RNE x19 x17) (fp.div RNE x15 x23)) (fp.add RNE (fp.add RNE x0 x0) (fp.mul RNE x2 x16))) (fp.neg (fp.add RNE (fp.mul RNE x18 x12) (fp.div RNE x19 x2)))) (fp.neg (fp.div RNE (fp.div RNE (fp.neg x17) (fp.add RNE x4 x17)) (fp.add RNE (fp.sub RNE x13 x23) (fp.add RNE x10 x14))))))
(assert (fp.eq (fp.div RNE (fp.sub RNE (fp.neg (fp.neg x3)) (fp.neg (fp.neg x5))) (fp.sub RNE (fp.mul RNE (fp.sub RNE x11 x20) (fp.add RNE x12 x19)) (fp.neg (fp.neg x23)))) (fp.div RNE (fp.sub RNE (fp.neg (fp.neg x4)) (fp.neg (fp.div RNE x25 x15))) (fp.div RNE (fp.neg (fp.mul RNE x1 x16)) (fp.div RNE (fp.div RNE x7 x16) (fp.div RNE x14 x1))))))
(assert (fp.gt (fp.mul RNE (fp.div RNE (fp.div RNE (fp.add RNE x15 x16) (fp.div RNE x13 x6)) (fp.div RNE (fp.add RNE x13 x22) (fp.sub RNE x3 x2))) (fp.div RNE (fp.mul RNE (fp.sub RNE x24 x12) (fp.neg x16)) (fp.sub RNE (fp.mul RNE x24 x10) (fp.add RNE x7 x17)))) (fp.mul RNE (fp.mul RNE (fp.mul RNE (fp.neg x4) (fp.neg x6)) (fp.div RNE (fp.add RNE x18 x17) (fp.sub RNE x18 x24))) (fp.mul RNE (fp.sub RNE (fp.neg x24) (fp.neg x17)) (fp.mul RNE (fp.add RNE x21 x5) (fp.mul RNE x15 x24))))))
(assert (fp.gt (fp.neg (fp.neg (fp.div RNE (fp.add RNE x15 x11) (fp.add RNE x19 x1)))) (fp.div RNE (fp.neg (fp.add RNE (fp.add RNE x19 x18) (fp.div RNE x6 x23))) (fp.div RNE (fp.add RNE (fp.div RNE x3 x6) (fp.neg x14)) (fp.add RNE (fp.sub RNE x7 x14) (fp.mul RNE x17 x19))))))
(assert (fp.eq (fp.sub RNE (fp.neg (fp.div RNE (fp.sub RNE x20 x9) (fp.add RNE x3 x18))) (fp.neg (fp.neg (fp.neg x18)))) (fp.mul RNE (fp.sub RNE (fp.add RNE (fp.sub RNE x24 x8) (fp.neg x22)) (fp.neg (fp.sub RNE x1 x20))) (fp.mul RNE (fp.mul RNE (fp.sub RNE x20 x11) (fp.mul RNE x7 x18)) (fp.sub RNE (fp.neg x1) (fp.div RNE x23 x8))))))
(assert (fp.geq (fp.mul RNE (fp.add RNE (fp.neg (fp.mul RNE x14 x1)) (fp.add RNE (fp.div RNE x3 x10) (fp.sub RNE x9 x19))) (fp.sub RNE (fp.neg (fp.div RNE x18 x7)) (fp.div RNE (fp.div RNE x5 x0) (fp.div RNE x1 x23)))) (fp.div RNE (fp.add RNE (fp.div RNE (fp.div RNE x16 x0) (fp.mul RNE x20 x6)) (fp.div RNE (fp.add RNE x6 x15) (fp.div RNE x22 x15))) (fp.sub RNE (fp.add RNE (fp.add RNE x16 x10) (fp.div RNE x17 x2)) (fp.sub RNE (fp.sub RNE x18 x1) (fp.mul RNE x14 x21))))))
(assert (fp.leq (fp.neg (fp.add RNE (fp.neg (fp.neg x6)) (fp.mul RNE (fp.add RNE x23 x22) (fp.mul RNE x23 x1)))) (fp.div RNE (fp.mul RNE (fp.neg (fp.neg x22)) (fp.neg (fp.add RNE x9 x21))) (fp.sub RNE (fp.sub RNE (fp.sub RNE x14 x12) (fp.sub RNE x6 x11)) (fp.mul RNE (fp.sub RNE x7 x13) (fp.sub RNE x23 x3))))))
(assert (fp.geq (fp.sub RNE (fp.sub RNE (fp.div RNE (fp.add RNE x18 x23) (fp.add RNE x22 x25)) (fp.neg (fp.add RNE x2 x5))) (fp.sub RNE (fp.div RNE (fp.sub RNE x25 x20) (fp.sub RNE x0 x13)) (fp.div RNE (fp.neg x13) (fp.neg x21)))) (fp.mul RNE (fp.sub RNE (fp.div RNE (fp.mul RNE x20 x16) (fp.sub RNE x6 x5)) (fp.div RNE (fp.sub RNE x0 x20) (fp.sub RNE x18 x1))) (fp.add RNE (fp.mul RNE (fp.neg x18) (fp.add RNE x21 x25)) (fp.sub RNE (fp.mul RNE x23 x20) (fp.neg x6))))))
(assert (fp.eq (fp.neg (fp.div RNE (fp.div RNE (fp.mul RNE x0 x5) (fp.div RNE x12 x23)) (fp.neg (fp.sub RNE x1 x1)))) (fp.mul RNE (fp.neg (fp.sub RNE (fp.mul RNE x14 x8) (fp.div RNE x15 x5))) (fp.sub RNE (fp.sub RNE (fp.mul RNE x17 x15) (fp.sub RNE x25 x18)) (fp.sub RNE (fp.div RNE x16 x2) (fp.neg x19))))))
(assert (fp.eq (fp.div RNE (fp.sub RNE (fp.neg (fp.div RNE x21 x22)) (fp.neg (fp.mul RNE x4 x0))) (fp.mul RNE (fp.div RNE (fp.mul RNE x4 x21) (fp.mul RNE x25 x16)) (fp.div RNE (fp.neg x8) (fp.mul RNE x7 x17)))) (fp.neg (fp.neg (fp.mul RNE (fp.add RNE x3 x14) (fp.add RNE x0 x24))))))
(assert (fp.eq (fp.add RNE (fp.mul RNE (fp.sub RNE (fp.mul RNE x1 x19) (fp.sub RNE x4 x17)) (fp.add RNE (fp.div RNE x0 x13) (fp.div RNE x11 x4))) (fp.neg (fp.neg (fp.add RNE x9 x7)))) (fp.mul RNE (fp.div RNE (fp.sub RNE (fp.add RNE x22 x10) (fp.sub RNE x9 x12)) (fp.neg (fp.div RNE x24 x3))) (fp.mul RNE (fp.div RNE (fp.sub RNE x10 x21) (fp.neg x3)) (fp.mul RNE (fp.div RNE x19 x21) (fp.mul RNE x23 x14))))))
(assert (fp.geq (fp.div RNE (fp.sub RNE (fp.neg (fp.neg x14)) (fp.add RNE (fp.neg x14) (fp.sub RNE x7 x16))) (fp.sub RNE (fp.sub RNE (fp.sub RNE x21 x18) (fp.div RNE x20 x15)) (fp.mul RNE (fp.div RNE x7 x13) (fp.neg x8)))) (fp.mul RNE (fp.div RNE (fp.add RNE (fp.mul RNE x24 x19) (fp.sub RNE x17 x3)) (fp.sub RNE (fp.mul RNE x24 x3) (fp.sub RNE x12 x20))) (fp.add RNE (fp.add RNE (fp.add RNE x2 x10) (fp.add RNE x11 x0)) (fp.div RNE (fp.neg x19) (fp.mul RNE x6 x14))))))
(assert (fp.geq (fp.mul RNE (fp.sub RNE (fp.div RNE (fp.sub RNE x2 x8) (fp.sub RNE x18 x8)) (fp.div RNE (fp.mul RNE x22 x8) (fp.sub RNE x24 x3))) (fp.sub RNE (fp.sub RNE (fp.mul RNE x12 x14) (fp.mul RNE x20 x11)) (fp.mul RNE (fp.add RNE x1 x7) (fp.neg x13)))) (fp.add RNE (fp.sub RNE (fp.add RNE (fp.sub RNE x13 x11) (fp.neg x12)) (fp.div RNE (fp.div RNE x23 x16) (fp.add RNE x2 x13))) (fp.sub RNE (fp.add RNE (fp.mul RNE x9 x4) (fp.neg x8)) (fp.neg (fp.add RNE x2 x17))))))
(assert (fp.eq (fp.neg (fp.add RNE (fp.neg (fp.sub RNE x25 x15)) (fp.mul RNE (fp.sub RNE x21 x12) (fp.sub RNE x1 x19)))) (fp.neg (fp.neg (fp.div RNE (fp.mul RNE x19 x24) (fp.add RNE x14 x15))))))
(check-sat)
