db/data/2684216855146911435529492309072479613367.z3.out
-------------------
2500.197400677
